%%%%%%%%%%%%%%%%%%%%%%%%%%%%%%%%%%%%%%%%%%%%%%%%%%%%%%%%%%%%%%%%%%%%%%%%%
%FILE DATA:	Soccer Computational Problem for MiniZinc Models
%AUTHORS:	Robinson Duque, Alejandro Arbelaez, Juan Francisco Díaz
%CONTACT:  	robinson.duque@correounivalle.edu.co 
%LAST UPDATE:	May, 2018 
%ROUND ROBIN:2
%TEAMS:20
%PRESENT FIXTURE:29
%FIXTURES TO PLAY:9
%GAMES TO PLAY:90
%%%%%%%%%%%%%%%%%%%%%%%%%%%%%%%%%%%%%%%%%%%%%%%%%%%%%%%%%%%%%%%%%%%%%%%%%
%Number of teams:
n=20;

%For the purpose of our models, we offer two representations of the games to play, namely fixtures and games to play:

%Fixtures to play:
%fixtures=[|0,0,0,0,1,1,0,1,0,1,0,1,1,0,1,1,0,1,0,0
%|0,0,0,0,1,0,1,1,0,1,1,1,1,0,0,1,0,1,0,0
%|0,0,0,1,1,0,0,0,1,0,1,1,0,1,1,1,0,1,0,0
%|0,0,1,0,0,1,1,0,1,0,1,0,1,0,1,0,1,1,0,0
%|1,1,1,0,0,1,0,1,0,1,1,0,0,1,0,1,0,0,0,0
%|1,0,0,1,1,0,1,1,1,1,0,0,0,0,1,0,1,0,0,0
%|0,1,0,1,0,1,0,0,1,1,1,1,0,0,0,1,1,0,0,0
%|1,1,0,0,1,1,0,0,0,0,1,0,0,1,0,0,0,1,1,1
%|0,0,1,1,0,1,1,0,0,0,0,0,1,1,0,0,1,0,1,1
%|1,1,0,0,1,1,1,0,0,0,1,0,0,0,0,1,1,0,0,1
%|0,1,1,1,1,0,1,1,0,1,0,0,0,0,1,0,0,0,0,1
%|1,1,1,0,0,0,1,0,0,0,0,0,1,1,0,1,0,0,1,1
%|1,1,0,1,0,0,0,0,1,0,0,1,0,1,1,0,1,0,1,0
%|0,0,1,0,1,0,0,1,1,0,0,1,1,0,0,1,1,0,0,1
%|1,0,1,1,0,1,0,0,0,0,1,0,1,0,0,0,0,1,1,1
%|1,1,1,0,1,0,1,0,0,1,0,1,0,1,0,0,0,0,1,0
%|0,0,0,1,0,1,1,0,1,1,0,0,1,1,0,0,0,1,1,0
%|1,1,1,1,0,0,0,1,0,0,0,0,0,0,1,0,1,0,1,1
%|0,0,0,0,0,0,0,1,1,0,0,1,1,0,1,1,1,1,0,1
%|0,0,0,0,0,0,0,1,1,1,1,1,0,1,1,0,0,1,1,0|];

%Played Fixtures:
%PlayedFixtures=[|0,2,2,2,1,1,2,1,2,1,2,1,1,2,1,1,2,1,2,2
%|2,0,2,2,1,2,1,1,2,1,1,1,1,2,2,1,2,1,2,2
%|2,2,0,1,1,2,2,2,1,2,1,1,2,1,1,1,2,1,2,2
%|2,2,1,0,2,1,1,2,1,2,1,2,1,2,1,2,1,1,2,2
%|1,1,1,2,0,1,2,1,2,1,1,2,2,1,2,1,2,2,2,2
%|1,2,2,1,1,0,1,1,1,1,2,2,2,2,1,2,1,2,2,2
%|2,1,2,1,2,1,0,2,1,1,1,1,2,2,2,1,1,2,2,2
%|1,1,2,2,1,1,2,0,2,2,1,2,2,1,2,2,2,1,1,1
%|2,2,1,1,2,1,1,2,0,2,2,2,1,1,2,2,1,2,1,1
%|1,1,2,2,1,1,1,2,2,0,1,2,2,2,2,1,1,2,2,1
%|2,1,1,1,1,2,1,1,2,1,0,2,2,2,1,2,2,2,2,1
%|1,1,1,2,2,2,1,2,2,2,2,0,1,1,2,1,2,2,1,1
%|1,1,2,1,2,2,2,2,1,2,2,1,0,1,1,2,1,2,1,2
%|2,2,1,2,1,2,2,1,1,2,2,1,1,0,2,1,1,2,2,1
%|1,2,1,1,2,1,2,2,2,2,1,2,1,2,0,2,2,1,1,1
%|1,1,1,2,1,2,1,2,2,1,2,1,2,1,2,0,2,2,1,2
%|2,2,2,1,2,1,1,2,1,1,2,2,1,1,2,2,0,1,1,2
%|1,1,1,1,2,2,2,1,2,2,2,2,2,2,1,2,1,0,1,1
%|2,2,2,2,2,2,2,1,1,2,2,1,1,2,1,1,1,1,0,1
%|2,2,2,2,2,2,2,1,1,1,1,1,2,1,1,2,2,1,1,0|];

%Games to play:
games=[|4,3|5,1|5,2|5,3|6,1|6,4|6,5|7,2|7,4|7,6|8,1|8,2|8,5|8,6|9,3|9,4|9,6|9,7|10,1|10,2|10,5|10,6|10,7|11,2|11,3|11,4|11,5|11,7|11,8|11,10|12,1|12,2|12,3|12,7|13,1|13,2|13,4|13,9|13,12|14,3|14,5|14,8|14,9|14,12|14,13|15,1|15,3|15,4|15,6|15,11|15,13|16,1|16,2|16,3|16,5|16,7|16,10|16,12|16,14|17,4|17,6|17,7|17,9|17,10|17,13|17,14|18,1|18,2|18,3|18,4|18,8|18,15|18,17|19,8|19,9|19,12|19,13|19,15|19,16|19,17|19,18|20,8|20,9|20,10|20,11|20,12|20,14|20,15|20,18|20,19|];

%Played Games:
%PlayedGames=[|2,1|2,1|3,1|3,1|3,2|3,2|4,1|4,1|4,2|4,2|4,3|5,1|5,2|5,3|5,4|5,4|6,1|6,2|6,2|6,3|6,3|6,4|6,5|7,1|7,1|7,2|7,3|7,3|7,4|7,5|7,5|7,6|8,1|8,2|8,3|8,3|8,4|8,4|8,5|8,6|8,7|8,7|9,1|9,1|9,2|9,2|9,3|9,4|9,5|9,5|9,6|9,7|9,8|9,8|10,1|10,2|10,3|10,3|10,4|10,4|10,5|10,6|10,7|10,8|10,8|10,9|10,9|11,1|11,1|11,2|11,3|11,4|11,5|11,6|11,6|11,7|11,8|11,9|11,9|11,10|12,1|12,2|12,3|12,4|12,4|12,5|12,5|12,6|12,6|12,7|12,8|12,8|12,9|12,9|12,10|12,10|12,11|12,11|13,1|13,2|13,3|13,3|13,4|13,5|13,5|13,6|13,6|13,7|13,7|13,8|13,8|13,9|13,10|13,10|13,11|13,11|13,12|14,1|14,1|14,2|14,2|14,3|14,4|14,4|14,5|14,6|14,6|14,7|14,7|14,8|14,9|14,10|14,10|14,11|14,11|14,12|14,13|15,1|15,2|15,2|15,3|15,4|15,5|15,5|15,6|15,7|15,7|15,8|15,8|15,9|15,9|15,10|15,10|15,11|15,12|15,12|15,13|15,14|15,14|16,1|16,2|16,3|16,4|16,4|16,5|16,6|16,6|16,7|16,8|16,8|16,9|16,9|16,10|16,11|16,11|16,12|16,13|16,13|16,14|16,15|16,15|17,1|17,1|17,2|17,2|17,3|17,3|17,4|17,5|17,5|17,6|17,7|17,8|17,8|17,9|17,10|17,11|17,11|17,12|17,12|17,13|17,14|17,15|17,15|17,16|17,16|18,1|18,2|18,3|18,4|18,5|18,5|18,6|18,6|18,7|18,7|18,8|18,9|18,9|18,10|18,10|18,11|18,11|18,12|18,12|18,13|18,13|18,14|18,14|18,15|18,16|18,16|18,17|19,1|19,1|19,2|19,2|19,3|19,3|19,4|19,4|19,5|19,5|19,6|19,6|19,7|19,7|19,8|19,9|19,10|19,10|19,11|19,11|19,12|19,13|19,14|19,14|19,15|19,16|19,17|19,18|20,1|20,1|20,2|20,2|20,3|20,3|20,4|20,4|20,5|20,5|20,6|20,6|20,7|20,7|20,8|20,9|20,10|20,11|20,12|20,13|20,13|20,14|20,15|20,16|20,16|20,17|20,17|20,18|20,19|];

%Played Games - Win Results:
%% 0  0  0  0  0  0  0  0  0  0  0  0  0  0  0  0  0  0  0  0
%% 0  0  0  0  0  0  1  1  0  0  0  0  0  0  0  0  0  0  0  1
%% 1  0  0  0  1  0  0  0  1  2  1  0  0  0  1  0  2  0  0  1
%% 0  0  0  0  0  0  0  0  0  0  0  0  0  0  0  0  0  0  0  0
%% 0  1  0  0  0  0  0  0  0  0  1  0  2  0  0  0  2  2  0  2
%% 0  0  0  1  1  0  0  1  1  0  1  1  0  0  0  2  0  0  0  0
%% 0  0  0  0  0  0  0  0  0  0  0  1  0  0  0  0  1  0  2  2
%% 0  0  0  0  0  0  0  0  0  0  0  0  0  0  0  0  0  0  0  0
%% 0  0  0  0  0  0  0  0  0  0  0  0  0  0  0  0  0  0  0  0
%% 1  0  0  2  1  0  1  0  0  0  0  1  0  0  0  0  0  0  2  0
%% 0  0  0  0  0  0  1  1  0  0  0  0  2  0  1  0  0  0  0  0
%% 0  0  0  0  0  0  0  0  0  0  0  0  0  0  0  0  0  0  0  1
%% 0  0  0  0  0  1  1  0  1  1  0  0  0  0  1  0  0  0  0  0
%% 2  2  1  0  1  2  0  1  1  0  0  0  0  0  0  1  1  0  2  0
%% 0  0  0  0  0  0  0  0  0  0  0  0  0  0  0  0  0  0  0  0
%% 1  1  0  0  0  0  0  0  0  0  0  1  2  0  0  0  0  2  0  0
%% 0  0  0  0  0  0  0  0  0  0  0  0  0  0  0  0  0  0  0  0
%% 1  0  0  0  0  0  1  1  0  0  0  1  0  0  1  0  1  0  0  1
%% 0  0  0  2  0  1  0  0  0  0  1  0  0  0  1  0  1  0  0  1
%% 0  0  0  0  0  0  0  0  0  0  0  0  0  0  1  0  0  0  0  0
%Played Games - Tie Results:
%% 0  2  1  2  1  1  2  1  2  0  2  1  1  0  1  0  2  0  2  2
%% 2  0  2  2  0  2  0  0  2  1  1  1  1  0  2  0  2  1  2  1
%% 1  2  0  1  0  2  2  2  0  0  0  1  2  0  0  1  0  1  2  1
%% 2  2  1  0  2  0  1  2  1  0  1  2  1  2  1  2  1  1  0  2
%% 1  0  0  2  0  0  2  1  2  0  0  2  0  0  2  1  0  0  2  0
%% 1  2  2  0  0  0  1  0  0  1  1  1  1  0  1  0  1  2  1  2
%% 2  0  2  1  2  1  0  2  1  0  0  0  1  2  2  1  0  1  0  0
%% 1  0  2  2  1  0  2  0  2  2  0  2  2  0  2  2  2  0  1  1
%% 2  2  0  1  2  0  1  2  0  2  2  2  0  0  2  2  1  2  1  1
%% 0  1  0  0  0  1  0  2  2  0  1  1  1  2  2  1  1  2  0  1
%% 2  1  0  1  0  1  0  0  2  1  0  2  0  2  0  2  2  2  1  1
%% 1  1  1  2  2  1  0  2  2  1  2  0  1  1  2  0  2  1  1  0
%% 1  1  2  1  0  1  1  2  0  1  0  1  0  1  0  0  1  2  1  2
%% 0  0  0  2  0  0  2  0  0  2  2  1  1  0  2  0  0  2  0  1
%% 1  2  0  1  2  1  2  2  2  2  0  2  0  2  0  2  2  0  0  0
%% 0  0  1  2  1  0  1  2  2  1  2  0  0  0  2  0  2  0  1  2
%% 2  2  0  1  0  1  0  2  1  1  2  2  1  0  2  2  0  0  0  2
%% 0  1  1  1  0  2  1  0  2  2  2  1  2  2  0  0  0  0  1  0
%% 2  2  2  0  2  1  0  1  1  0  1  1  1  0  0  1  0  1  0  0
%% 2  1  1  2  0  2  0  1  1  1  1  0  2  1  0  2  2  0  0  0
%Played Games - Lose Results:
%% 0  0  1  0  0  0  0  0  0  1  0  0  0  2  0  1  0  1  0  0
%% 0  0  0  0  1  0  0  0  0  0  0  0  0  2  0  1  0  0  0  0
%% 0  0  0  0  0  0  0  0  0  0  0  0  0  1  0  0  0  0  0  0
%% 0  0  0  0  0  1  0  0  0  2  0  0  0  0  0  0  0  0  2  0
%% 0  0  1  0  0  1  0  0  0  1  0  0  0  1  0  0  0  0  0  0
%% 0  0  0  0  0  0  0  0  0  0  0  0  1  2  0  0  0  0  1  0
%% 0  1  0  0  0  0  0  0  0  1  1  0  1  0  0  0  0  1  0  0
%% 0  1  0  0  0  1  0  0  0  0  1  0  0  1  0  0  0  1  0  0
%% 0  0  1  0  0  1  0  0  0  0  0  0  1  1  0  0  0  0  0  0
%% 0  0  2  0  0  0  0  0  0  0  0  0  1  0  0  0  0  0  0  0
%% 0  0  1  0  1  1  0  0  0  0  0  0  0  0  0  0  0  0  1  0
%% 0  0  0  0  0  1  1  0  0  1  0  0  0  0  0  1  0  1  0  0
%% 0  0  0  0  2  0  0  0  0  0  2  0  0  0  0  2  0  0  0  0
%% 0  0  0  0  0  0  0  0  0  0  0  0  0  0  0  0  0  0  0  0
%% 0  0  1  0  0  0  0  0  0  0  1  0  1  0  0  0  0  1  1  1
%% 0  0  0  0  0  2  0  0  0  0  0  0  0  1  0  0  0  0  0  0
%% 0  0  2  0  2  0  1  0  0  0  0  0  0  1  0  0  0  1  1  0
%% 0  0  0  0  2  0  0  0  0  0  0  0  0  0  0  2  0  0  0  0
%% 0  0  0  0  0  0  2  0  0  2  0  0  0  2  0  0  0  0  0  0
%% 0  1  1  0  2  0  2  0  0  0  0  1  0  0  0  0  0  1  1  0

%%Initial points:
iPoints=[23, 31, 48, 24, 45, 41, 36, 24, 25, 42, 35, 26, 33, 57, 23, 40, 21, 39, 37, 22];

%%Initial positions:
%iPositions=[18, 12, 2, 16, 3, 5, 9, 15, 14, 4, 10, 13, 11, 1, 17, 6, 20, 7, 8, 19];

%%Position Constraints:
%numberPositionConstraints=1;

%%Total Fixtures:
%totalFixtures=38;

%%Fixtures to Play:
%fixturesToPlay=9;

%%Position Constraints Built With
%wantedPoints=[3, 3, 3, 0, 0, 3, 3, 1, 3, 1, 3, 3, 1, 1, 1, 0, 3, 3, 3, 0, 3, 3, 3, 1, 3, 3, 0, 1, 1, 0, 1, 3, 1, 0, 3, 1, 1, 1, 3, 3, 0, 1, 1, 1, 3, 1, 3, 3, 0, 0, 1, 1, 1, 1, 1, 3, 0, 3, 3, 0, 3, 1, 0, 1, 3, 0, 3, 0, 0, 3, 3, 1, 0, 3, 1, 3, 0, 3, 3, 3, 1, 0, 3, 3, 1, 0, 3, 3, 0, 1];

%%Probabilities:
probabilities=[|27,19,0,54,|64,14,0,22,|10,25,0,65,|55,34,0,11,|61,19,0,20,|7,34,0,59,|6,3,0,91,|11,53,0,36,|76,1,0,23,|48,41,0,11,|29,2,0,69,|64,21,0,15,|85,0,0,15,|82,15,0,3,|89,6,0,5,|38,3,0,59,|88,5,0,7,|39,16,0,45,|54,43,0,3,|25,48,0,27,|60,13,0,27,|18,36,0,46,|22,60,0,18,|67,22,0,11,|62,33,0,5,|20,40,0,40,|38,47,0,15,|94,6,0,0,|4,35,0,61,|89,1,0,10,|9,86,0,5,|88,10,0,2,|72,24,0,4,|57,3,0,40,|71,5,0,24,|12,41,0,47,|5,51,0,44,|48,0,0,52,|81,14,0,5,|80,4,0,16,|96,0,0,4,|59,15,0,26,|88,5,0,7,|48,35,0,17,|45,23,0,32,|44,30,0,26,|62,9,0,29,|3,9,0,88,|16,5,0,79,|21,59,0,20,|63,22,0,15,|38,48,0,14,|26,29,0,45,|15,67,0,18,|50,30,0,20,|78,2,0,20,|78,13,0,9,|52,36,0,12,|77,7,0,16,|49,2,0,49,|51,40,0,9,|53,26,0,21,|87,9,0,4,|63,24,0,13,|42,45,0,13,|67,33,0,0,|100,0,0,0,|39,19,0,42,|19,39,0,42,|24,18,0,58,|71,13,0,16,|11,38,0,51,|43,6,0,51,|78,2,0,20,|82,4,0,14,|38,32,0,30,|87,5,0,8,|83,4,0,13,|34,36,0,30,|99,0,0,1,|63,32,0,5,|60,40,0,0,|3,95,0,2,|0,54,0,46,|17,1,0,82,|38,31,0,31,|57,9,0,34,|31,38,0,31,|37,8,0,55,|80,8,0,12,|];


%POSITION CONSTRAINTS
%%[|teamID, operator, position|...]
%%operators index:
%%%1 for =  operator
%%%2 for >  operator
%%%3 for >= operator
%%%4 for <  operator
%%%5 for <= operator

positionConstraints=[|20,1,15|];

%SCORE VECTOR CONSTRAINTS
%%[|teamID, operator, wantedPoints|...]
%%operators index:
%%%1 for =  operator
%%%2 for >  operator
%%%3 for >= operator
%%%4 for <  operator
%%%5 for <= operator

%scoreVectorConstraints=[|20,1,36|];

%Instance Features:
%features=T,FP,TF,C,C/T,C/TF,FP/TF,FP/T,FP*C/T,FP*T/C,(C/T)*(FP/TF),Distance,Distance/C,Distance/T,Distance/(C*T)
%values=20,9,38,1,0.05,0.02631578947368421,0.2368421052631579,0.45,0.45,180.0,0.0118421052631579,4,4.0,0.2,0.2



